# Solution for model HELLO
# Objective value = 62348
XXXXXXX0 1
XXXXXXX1 1
XXXXXXX2 1
XXXXXXX3 1
XXXXXXX4 1
XXXXXXX5 1
XXXXXXX6 1
XXXXXXX7 1
XXXXXXX8 1
XXXXXXX9 1
XXXXXX10 1
XXXXXX11 1
XXXXXX12 1
XXXXXX13 1
XXXXXX14 1
XXXXXX15 1
XXXXXX16 1
XXXXXX17 1
XXXXXX18 1
XXXXXX19 1
XXXXXX20 1
XXXXXX21 1
XXXXXX22 1
XXXXXX23 1
XXXXXX24 1
XXXXXX25 1
XXXXXX26 1
XXXXXX27 1
XXXXXX28 1
XXXXXX29 1
XXXXXX30 1
XXXXXX31 1
XXXXXX32 1
XXXXXX33 1
XXXXXX34 1
XXXXXX35 1
XXXXXX36 1
XXXXXX37 1
XXXXXX38 1
XXXXXX39 1
XXXXXX40 1
XXXXXX41 1
XXXXXX42 1
XXXXXX43 1
XXXXXX44 1
XXXXXX45 1
XXXXXX46 1
XXXXXX47 1
XXXXXX48 1
XXXXXX49 1
XXXXXX50 1
XXXXXX51 1
XXXXXX52 1
XXXXXX53 1
XXXXXX54 1
XXXXXX55 1
XXXXXX56 1
XXXXXX57 1
XXXXXX58 1
XXXXXX59 1
XXXXXX60 1
XXXXXX61 1
XXXXXX62 1
XXXXXX63 1
XXXXXX64 1
XXXXXX65 1
XXXXXX66 1
XXXXXX67 1
XXXXXX68 1
XXXXXX69 1
XXXXXX70 1
XXXXXX71 1
XXXXXX72 1
XXXXXX73 1
XXXXXX74 1
XXXXXX75 1
XXXXXX76 1
XXXXXX77 1
XXXXXX78 1
XXXXXX79 1
XXXXXX80 1
XXXXXX81 1
XXXXXX82 1
XXXXXX83 1
XXXXXX84 1
XXXXXX85 1
XXXXXX86 1
XXXXXX87 1
XXXXXX88 1
XXXXXX89 1
XXXXXX90 1
XXXXXX91 1
XXXXXX92 1
XXXXXX93 1
XXXXXX94 1
XXXXXX95 1
XXXXXX96 1
XXXXXX97 1
XXXXXX98 1
XXXXXX99 1
XXXXX100 1
XXXXX101 1
XXXXX102 1
XXXXX103 1
XXXXX104 1
XXXXX105 1
XXXXX106 1
XXXXX107 1
XXXXX108 1
XXXXX109 1
XXXXX110 1
XXXXX111 1
XXXXX112 1
XXXXX113 1
XXXXX114 1
XXXXX115 1
XXXXX116 1
XXXXX117 1
XXXXX118 1
XXXXX119 1
XXXXX120 1
XXXXX121 1
XXXXX122 1
XXXXX123 1
XXXXX124 1
XXXXX125 1
XXXXX126 1
XXXXX127 1
XXXXX128 1
XXXXX129 1
XXXXX130 1
XXXXX131 1
XXXXX132 1
XXXXX133 1
XXXXX134 1
XXXXX135 1
XXXXX136 1
XXXXX137 1
XXXXX138 1
XXXXX139 1
XXXXX140 1
XXXXX141 1
XXXXX142 1
XXXXX143 1
XXXXX144 1
XXXXX145 1
XXXXX146 1
XXXXX147 1
XXXXX148 0
XXXXX149 0
XXXXX150 0
XXXXX151 0
XXXXX152 0
XXXXX153 0
XXXXX154 0
XXXXX155 0
XXXXX156 0
XXXXX157 0
XXXXX158 0
XXXXX159 0
XXXXX160 0
XXXXX161 0
XXXXX162 0
XXXXX163 0
XXXXX164 0
XXXXX165 0
XXXXX166 0
XXXXX167 0
XXXXX168 0
XXXXX169 0
XXXXX170 0
XXXXX171 0
XXXXX172 0
XXXXX173 0
XXXXX174 0
XXXXX175 0
XXXXX176 0
XXXXX177 0
XXXXX178 0
XXXXX179 0
XXXXX180 0
XXXXX181 0
XXXXX182 0
XXXXX183 0
XXXXX184 0
XXXXX185 0
XXXXX186 0
XXXXX187 0
XXXXX188 0
XXXXX189 0
XXXXX190 0
XXXXX191 0
XXXXX192 0
XXXXX193 0
XXXXX194 0
XXXXX195 0
XXXXX196 0
XXXXX197 0
XXXXX198 0
XXXXX199 0
XXXXX200 0
XXXXX201 0
XXXXX202 0
XXXXX203 0
XXXXX204 0
XXXXX205 0
XXXXX206 0
XXXXX207 0
XXXXX208 0
XXXXX209 0
XXXXX210 0
XXXXX211 0
XXXXX212 0
XXXXX213 0
XXXXX214 0
XXXXX215 0
XXXXX216 0
XXXXX217 0
XXXXX218 0
XXXXX219 0
XXXXX220 0
XXXXX221 0
XXXXX222 0
XXXXX223 0
XXXXX224 0
XXXXX225 0
XXXXX226 0
XXXXX227 0
XXXXX228 0
XXXXX229 0
XXXXX230 0
XXXXX231 0
XXXXX232 0
XXXXX233 0
XXXXX234 0
XXXXX235 0
XXXXX236 0
XXXXX237 0
XXXXX238 0
XXXXX239 0
XXXXX240 0
XXXXX241 0
XXXXX242 0
XXXXX243 0
XXXXX244 0
XXXXX245 0
XXXXX246 0
XXXXX247 0
XXXXX248 0
XXXXX249 0
XXXXX250 1
XXXXX251 1
XXXXX252 1
XXXXX253 1
XXXXX254 1
XXXXX255 1
XXXXX256 1
XXXXX257 1
XXXXX258 1
XXXXX259 1
XXXXX260 1
XXXXX261 1
XXXXX262 1
XXXXX263 1
XXXXX264 1
XXXXX265 1
XXXXX266 1
XXXXX267 1
XXXXX268 1
XXXXX269 1
XXXXX270 1
XXXXX271 1
XXXXX272 1
XXXXX273 1
XXXXX274 1
XXXXX275 1
XXXXX276 1
XXXXX277 1
XXXXX278 1
XXXXX279 1
XXXXX280 1
XXXXX281 1
XXXXX282 1
XXXXX283 1
XXXXX284 1
XXXXX285 1
XXXXX286 1
XXXXX287 1
XXXXX288 1
XXXXX289 1
XXXXX290 1
XXXXX291 1
XXXXX292 1
XXXXX293 1
XXXXX294 0
XXXXX295 0
XXXXX296 0
XXXXX297 0
XXXXX298 0
XXXXX299 0
XXXXX300 0
XXXXX301 0
XXXXX302 0
XXXXX303 0
XXXXX304 0
XXXXX305 0
XXXXX306 0
XXXXX307 0
XXXXX308 0
XXXXX309 0
XXXXX310 0
XXXXX311 0
XXXXX312 0
XXXXX313 0
XXXXX314 0
XXXXX315 0
XXXXX316 0
XXXXX317 0
XXXXX318 0
XXXXX319 0
XXXXX320 0
XXXXX321 0
XXXXX322 0
XXXXX323 0
XXXXX324 0
XXXXX325 0
XXXXX326 0
XXXXX327 0
XXXXX328 0
XXXXX329 0
XXXXX330 0
XXXXX331 0
XXXXX332 0
XXXXX333 0
XXXXX334 0
XXXXX335 0
XXXXX336 0
XXXXX337 0
XXXXX338 0
XXXXX339 0
XXXXX340 0
XXXXX341 1
XXXXX342 1
XXXXX343 1
XXXXX344 1
XXXXX345 1
XXXXX346 1
XXXXX347 1
XXXXX348 1
XXXXX349 1
XXXXX350 1
XXXXX351 1
XXXXX352 1
XXXXX353 1
XXXXX354 1
XXXXX355 1
XXXXX356 1
XXXXX357 1
XXXXX358 1
XXXXX359 1
XXXXX360 1
XXXXX361 1
XXXXX362 1
XXXXX363 1
XXXXX364 1
XXXXX365 1
XXXXX366 1
XXXXX367 1
XXXXX368 1
XXXXX369 1
XXXXX370 1
XXXXX371 1
XXXXX372 1
XXXXX373 1
XXXXX374 1
XXXXX375 1
XXXXX376 1
XXXXX377 1
XXXXX378 1
XXXXX379 1
XXXXX380 1
XXXXX381 1
XXXXX382 1
XXXXX383 1
XXXXX384 1
XXXXX385 1
XXXXX386 1
XXXXX387 1
XXXXX388 1
XXXXX389 1
XXXXX390 1
XXXXX391 1
XXXXX392 1
XXXXX393 1
XXXXX394 1
XXXXX395 1
XXXXX396 1
XXXXX397 1
XXXXX398 1
XXXXX399 1
XXXXX400 1
XXXXX401 1
XXXXX402 1
XXXXX403 1
XXXXX404 1
XXXXX405 1
XXXXX406 1
XXXXX407 1
XXXXX408 1
XXXXX409 1
XXXXX410 1
XXXXX411 1
XXXXX412 1
XXXXX413 1
XXXXX414 1
XXXXX415 1
XXXXX416 1
XXXXX417 1
XXXXX418 1
XXXXX419 1
XXXXX420 1
XXXXX421 1
XXXXX422 1
XXXXX423 1
XXXXX424 1
XXXXX425 1
XXXXX426 1
XXXXX427 1
XXXXX428 1
XXXXX429 1
XXXXX430 1
XXXXX431 1
XXXXX432 1
XXXXX433 1
XXXXX434 1
XXXXX435 1
XXXXX436 1
XXXXX437 1
XXXXX438 1
XXXXX439 1
XXXXX440 1
XXXXX441 1
XXXXX442 1
XXXXX443 1
XXXXX444 1
XXXXX445 1
XXXXX446 1
XXXXX447 1
XXXXX448 1
XXXXX449 1
XXXXX450 1
XXXXX451 1
XXXXX452 1
XXXXX453 1
XXXXX454 1
XXXXX455 1
XXXXX456 1
XXXXX457 1
XXXXX458 1
XXXXX459 1
XXXXX460 1
XXXXX461 1
XXXXX462 1
XXXXX463 1
XXXXX464 1
XXXXX465 1
XXXXX466 1
XXXXX467 1
XXXXX468 1
XXXXX469 1
XXXXX470 1
XXXXX471 1
XXXXX472 1
XXXXX473 1
XXXXX474 1
XXXXX475 1
XXXXX476 1
XXXXX477 1
XXXXX478 1
XXXXX479 1
XXXXX480 1
XXXXX481 1
XXXXX482 1
XXXXX483 1
XXXXX484 1
XXXXX485 1
XXXXX486 1
XXXXX487 1
XXXXX488 1
XXXXX489 1
XXXXX490 1
XXXXX491 1
XXXXX492 1
XXXXX493 1
XXXXX494 1
XXXXX495 1
XXXXX496 1
XXXXX497 1
XXXXX498 1
XXXXX499 1
XXXXX500 1
XXXXX501 1
XXXXX502 1
XXXXX503 1
XXXXX504 1
XXXXX505 1
XXXXX506 1
XXXXX507 1
XXXXX508 0
XXXXX509 0
XXXXX510 0
XXXXX511 0
XXXXX512 0
XXXXX513 0
XXXXX514 0
XXXXX515 0
XXXXX516 0
XXXXX517 0
XXXXX518 0
XXXXX519 0
XXXXX520 0
XXXXX521 0
XXXXX522 0
XXXXX523 0
XXXXX524 0
XXXXX525 0
XXXXX526 0
XXXXX527 0
XXXXX528 0
XXXXX529 0
XXXXX530 0
XXXXX531 0
XXXXX532 0
XXXXX533 0
XXXXX534 0
XXXXX535 0
XXXXX536 0
XXXXX537 0
XXXXX538 0
XXXXX539 0
XXXXX540 0
XXXXX541 0
XXXXX542 0
XXXXX543 0
XXXXX544 0
XXXXX545 0
XXXXX546 0
XXXXX547 0
XXXXX548 0
XXXXX549 0
XXXXX550 0
XXXXX551 0
XXXXX552 0
XXXXX553 0
XXXXX554 0
XXXXX555 0
XXXXX556 0
XXXXX557 0
XXXXX558 0
XXXXX559 0
XXXXX560 0
XXXXX561 0
XXXXX562 0
XXXXX563 0
XXXXX564 0
XXXXX565 0
XXXXX566 1
XXXXX567 1
XXXXX568 1
XXXXX569 1
XXXXX570 1
XXXXX571 1
XXXXX572 1
XXXXX573 1
XXXXX574 1
XXXXX575 1
XXXXX576 1
XXXXX577 1
XXXXX578 1
XXXXX579 1
XXXXX580 1
XXXXX581 1
XXXXX582 1
XXXXX583 1
XXXXX584 1
XXXXX585 1
XXXXX586 1
XXXXX587 1
XXXXX588 1
XXXXX589 1
XXXXX590 1
XXXXX591 1
XXXXX592 1
XXXXX593 1
XXXXX594 1
XXXXX595 1
XXXXX596 1
XXXXX597 1
XXXXX598 1
XXXXX599 1
XXXXX600 1
XXXXX601 1
XXXXX602 1
XXXXX603 1
XXXXX604 1
XXXXX605 1
XXXXX606 1
XXXXX607 1
XXXXX608 1
XXXXX609 1
XXXXX610 1
XXXXX611 1
XXXXX612 1
XXXXX613 1
XXXXX614 1
XXXXX615 1
XXXXX616 1
XXXXX617 1
XXXXX618 1
XXXXX619 1
XXXXX620 1
XXXXX621 1
XXXXX622 1
XXXXX623 1
XXXXX624 1
XXXXX625 1
XXXXX626 1
XXXXX627 1
XXXXX628 1
XXXXX629 1
XXXXX630 1
XXXXX631 1
XXXXX632 1
XXXXX633 1
XXXXX634 1
XXXXX635 1
XXXXX636 1
XXXXX637 1
XXXXX638 1
XXXXX639 1
XXXXX640 1
XXXXX641 1
XXXXX642 1
XXXXX643 1
XXXXX644 1
XXXXX645 1
XXXXX646 1
XXXXX647 1
XXXXX648 1
XXXXX649 1
XXXXX650 1
XXXXX651 1
XXXXX652 1
XXXXX653 1
XXXXX654 1
XXXXX655 1
XXXXX656 1
XXXXX657 1
XXXXX658 1
XXXXX659 1
XXXXX660 1
XXXXX661 1
XXXXX662 1
XXXXX663 1
XXXXX664 1
XXXXX665 1
XXXXX666 1
XXXXX667 1
XXXXX668 1
XXXXX669 1
XXXXX670 1
XXXXX671 1
XXXXX672 1
XXXXX673 1
XXXXX674 0
XXXXX675 0
XXXXX676 0
XXXXX677 0
XXXXX678 0
XXXXX679 0
XXXXX680 0
XXXXX681 0
XXXXX682 0
XXXXX683 0
XXXXX684 0
XXXXX685 0
XXXXX686 0
XXXXX687 0
XXXXX688 0
XXXXX689 0
XXXXX690 0
XXXXX691 0
XXXXX692 0
XXXXX693 0
XXXXX694 0
XXXXX695 0
XXXXX696 0
XXXXX697 0
XXXXX698 0
XXXXX699 0
XXXXX700 0
XXXXX701 0
XXXXX702 0
XXXXX703 0
XXXXX704 0
XXXXX705 0
XXXXX706 0
XXXXX707 0
XXXXX708 0
XXXXX709 0
XXXXX710 0
XXXXX711 0
XXXXX712 0
XXXXX713 0
XXXXX714 0
XXXXX715 0
XXXXX716 0
XXXXX717 0
XXXXX718 0
XXXXX719 0
XXXXX720 0
XXXXX721 0
XXXXX722 0
XXXXX723 0
XXXXX724 0
XXXXX725 0
XXXXX726 0
XXXXX727 0
XXXXX728 0
XXXXX729 0
XXXXX730 0
XXXXX731 0
XXXXX732 1
XXXXX733 1
XXXXX734 1
XXXXX735 1
XXXXX736 1
XXXXX737 1
XXXXX738 1
XXXXX739 1
XXXXX740 1
XXXXX741 1
XXXXX742 1
XXXXX743 1
XXXXX744 1
XXXXX745 1
XXXXX746 1
XXXXX747 1
XXXXX748 1
XXXXX749 1
XXXXX750 1
XXXXX751 1
XXXXX752 1
XXXXX753 1
XXXXX754 1
XXXXX755 1
XXXXX756 1
XXXXX757 1
XXXXX758 1
XXXXX759 1
XXXXX760 1
XXXXX761 1
XXXXX762 1
XXXXX763 1
XXXXX764 1
XXXXX765 1
XXXXX766 1
XXXXX767 1
XXXXX768 1
XXXXX769 1
XXXXX770 1
XXXXX771 1
XXXXX772 1
XXXXX773 1
XXXXX774 1
XXXXX775 1
XXXXX776 1
XXXXX777 1
XXXXX778 1
XXXXX779 1
XXXXX780 1
XXXXX781 1
XXXXX782 1
XXXXX783 1
XXXXX784 1
XXXXX785 1
XXXXX786 1
XXXXX787 1
XXXXX788 1
XXXXX789 1
XXXXX790 1
XXXXX791 1
XXXXX792 1
XXXXX793 1
XXXXX794 1
XXXXX795 1
XXXXX796 1
XXXXX797 1
XXXXX798 1
XXXXX799 1
XXXXX800 1
XXXXX801 1
XXXXX802 1
XXXXX803 1
XXXXX804 1
XXXXX805 1
XXXXX806 1
XXXXX807 1
XXXXX808 1
XXXXX809 1
XXXXX810 1
XXXXX811 1
XXXXX812 1
XXXXX813 1
XXXXX814 1
XXXXX815 1
XXXXX816 1
XXXXX817 1
XXXXX818 1
XXXXX819 1
XXXXX820 1
XXXXX821 1
XXXXX822 1
XXXXX823 1
XXXXX824 1
XXXXX825 1
XXXXX826 1
XXXXX827 1
XXXXX828 1
XXXXX829 1
XXXXX830 1
XXXXX831 1
XXXXX832 1
XXXXX833 1
XXXXX834 1
XXXXX835 1
XXXXX836 1
XXXXX837 1
XXXXX838 1
XXXXX839 1
XXXXX840 1
XXXXX841 1
XXXXX842 1
XXXXX843 1
XXXXX844 1
XXXXX845 1
XXXXX846 1
XXXXX847 1
XXXXX848 1
XXXXX849 1
XXXXX850 1
XXXXX851 0
XXXXX852 0
XXXXX853 0
XXXXX854 0
XXXXX855 0
XXXXX856 0
XXXXX857 0
XXXXX858 0
XXXXX859 0
XXXXX860 0
XXXXX861 0
XXXXX862 0
XXXXX863 0
XXXXX864 0
XXXXX865 0
XXXXX866 0
XXXXX867 0
XXXXX868 0
XXXXX869 0
XXXXX870 0
XXXXX871 0
XXXXX872 0
XXXXX873 0
XXXXX874 0
XXXXX875 0
XXXXX876 0
XXXXX877 0
XXXXX878 0
XXXXX879 0
XXXXX880 0
XXXXX881 0
XXXXX882 0
XXXXX883 0
XXXXX884 0
XXXXX885 0
XXXXX886 0
XXXXX887 0
XXXXX888 0
XXXXX889 0
XXXXX890 0
XXXXX891 0
XXXXX892 0
XXXXX893 0
XXXXX894 0
XXXXX895 0
XXXXX896 0
XXXXX897 0
XXXXX898 0
XXXXX899 0
XXXXX900 0
XXXXX901 0
XXXXX902 0
XXXXX903 0
XXXXX904 0
XXXXX905 0
XXXXX906 0
XXXXX907 0
XXXXX908 0
XXXXX909 0
XXXXX910 0
XXXXX911 0
XXXXX912 0
XXXXX913 0
XXXXX914 0
XXXXX915 0
XXXXX916 0
XXXXX917 0
XXXXX918 0
XXXXX919 0
XXXXX920 0
XXXXX921 0
XXXXX922 0
XXXXX923 0
XXXXX924 0
XXXXX925 0
XXXXX926 0
XXXXX927 0
XXXXX928 0
XXXXX929 0
XXXXX930 0
XXXXX931 0
XXXXX932 0
XXXXX933 0
XXXXX934 0
XXXXX935 0
XXXXX936 0
XXXXX937 0
XXXXX938 0
XXXXX939 0
XXXXX940 0
XXXXX941 0
XXXXX942 0
XXXXX943 0
XXXXX944 0
XXXXX945 0
XXXXX946 0
XXXXX947 0
XXXXX948 0
XXXXX949 0
XXXXX950 0
XXXXX951 0
XXXXX952 0
XXXXX953 0
XXXXX954 0
XXXXX955 0
XXXXX956 0
XXXXX957 0
XXXXX958 0
XXXXX959 0
XXXXX960 0
XXXXX961 0
XXXXX962 0
XXXXX963 0
XXXXX964 0
XXXXX965 0
XXXXX966 0
XXXXX967 0
XXXXX968 0
XXXXX969 0
XXXXX970 0
XXXXX971 0
XXXXX972 0
XXXXX973 0
XXXXX974 0
XXXXX975 0
XXXXX976 0
XXXXX977 0
XXXXX978 0
XXXXX979 0
XXXXX980 0
XXXXX981 0
XXXXX982 0
XXXXX983 0
XXXXX984 0
XXXXX985 0
XXXXX986 0
XXXXX987 0
XXXXX988 0
XXXXX989 0
XXXXX990 0
XXXXX991 0
XXXXX992 0
XXXXX993 0
XXXXX994 0
XXXXX995 0
XXXXX996 0
XXXXX997 0
XXXXX998 0
XXXXX999 0
XXXX1000 0
XXXX1001 0
XXXX1002 0
XXXX1003 0
XXXX1004 0
XXXX1005 0
XXXX1006 0
XXXX1007 0
XXXX1008 0
XXXX1009 0
XXXX1010 0
XXXX1011 0
XXXX1012 0
XXXX1013 0
XXXX1014 0
XXXX1015 0
XXXX1016 0
XXXX1017 0
XXXX1018 0
XXXX1019 0
XXXX1020 0
XXXX1021 0
XXXX1022 0
XXXX1023 0
XXXX1024 0
XXXX1025 0
XXXX1026 0
XXXX1027 0
XXXX1028 0
XXXX1029 0
XXXX1030 0
XXXX1031 0
XXXX1032 0
XXXX1033 0
XXXX1034 0
XXXX1035 0
XXXX1036 0
XXXX1037 0
XXXX1038 0
XXXX1039 0
XXXX1040 0
XXXX1041 0
XXXX1042 0
XXXX1043 0
XXXX1044 0
XXXX1045 0
XXXX1046 0
XXXX1047 0
XXXX1048 0
XXXX1049 0
XXXX1050 0
XXXX1051 0
XXXX1052 0
XXXX1053 0
XXXX1054 0
XXXX1055 0
XXXX1056 0
XXXX1057 0
XXXX1058 0
XXXX1059 0
XXXX1060 0
XXXX1061 0
XXXX1062 0
XXXX1063 0
XXXX1064 0
XXXX1065 0
XXXX1066 0
XXXX1067 0
XXXX1068 0
XXXX1069 0
XXXX1070 0
XXXX1071 0
XXXX1072 0
XXXX1073 0
XXXX1074 0
XXXX1075 0
XXXX1076 0
XXXX1077 0
XXXX1078 0
XXXX1079 0
XXXX1080 0
XXXX1081 0
XXXX1082 0
XXXX1083 0
XXXX1084 0
XXXX1085 0
XXXX1086 0
XXXX1087 0
XXXX1088 0
XXXX1089 1
XXXX1090 1
XXXX1091 1
XXXX1092 1
XXXX1093 1
XXXX1094 1
XXXX1095 1
XXXX1096 1
XXXX1097 1
XXXX1098 1
XXXX1099 1
XXXX1100 1
XXXX1101 1
XXXX1102 1
XXXX1103 1
XXXX1104 1
XXXX1105 1
XXXX1106 1
XXXX1107 1
XXXX1108 1
XXXX1109 1
XXXX1110 1
XXXX1111 1
XXXX1112 1
XXXX1113 1
XXXX1114 1
XXXX1115 1
XXXX1116 1
XXXX1117 1
XXXX1118 1
XXXX1119 1
XXXX1120 1
XXXX1121 1
XXXX1122 1
XXXX1123 1
XXXX1124 1
XXXX1125 1
XXXX1126 1
XXXX1127 1
XXXX1128 1
XXXX1129 1
XXXX1130 1
XXXX1131 1
XXXX1132 1
XXXX1133 1
XXXX1134 1
XXXX1135 1
XXXX1136 1
XXXX1137 1
XXXX1138 1
XXXX1139 1
XXXX1140 1
XXXX1141 1
XXXX1142 1
XXXX1143 1
XXXX1144 1
XXXX1145 1
XXXX1146 1
XXXX1147 1
XXXX1148 1
XXXX1149 1
XXXX1150 1
XXXX1151 1
XXXX1152 1
XXXX1153 1
XXXX1154 1
XXXX1155 1
XXXX1156 1
XXXX1157 1
XXXX1158 1
XXXX1159 1
XXXX1160 1
XXXX1161 1
XXXX1162 1
XXXX1163 1
XXXX1164 1
XXXX1165 1
XXXX1166 1
XXXX1167 1
XXXX1168 1
XXXX1169 1
XXXX1170 1
XXXX1171 1
XXXX1172 1
XXXX1173 1
XXXX1174 1
XXXX1175 1
XXXX1176 1
XXXX1177 1
XXXX1178 1
XXXX1179 1
XXXX1180 1
XXXX1181 1
XXXX1182 1
XXXX1183 1
XXXX1184 1
XXXX1185 1
XXXX1186 1
XXXX1187 1
XXXX1188 1
XXXX1189 1
XXXX1190 1
XXXX1191 1
XXXX1192 1
XXXX1193 1
XXXX1194 1
XXXX1195 1
XXXX1196 1
XXXX1197 1
XXXX1198 1
XXXX1199 1
XXXX1200 1
XXXX1201 1
XXXX1202 1
XXXX1203 0
XXXX1204 0
XXXX1205 0
XXXX1206 0
XXXX1207 0
XXXX1208 0
XXXX1209 0
XXXX1210 0
XXXX1211 0
XXXX1212 0
XXXX1213 0
XXXX1214 0
XXXX1215 0
XXXX1216 0
XXXX1217 0
XXXX1218 0
XXXX1219 0
XXXX1220 0
XXXX1221 0
XXXX1222 0
XXXX1223 0
XXXX1224 0
XXXX1225 0
XXXX1226 0
XXXX1227 0
XXXX1228 0
XXXX1229 0
XXXX1230 0
XXXX1231 0
XXXX1232 0
XXXX1233 0
XXXX1234 0
XXXX1235 0
XXXX1236 0
XXXX1237 0
XXXX1238 0
XXXX1239 0
XXXX1240 0
XXXX1241 0
XXXX1242 0
XXXX1243 0
XXXX1244 0
XXXX1245 0
XXXX1246 0
XXXX1247 0
XXXX1248 0
XXXX1249 0
XXXX1250 0
XXXX1251 0
XXXX1252 0
XXXX1253 0
XXXX1254 0
XXXX1255 0
XXXX1256 0
XXXX1257 0
XXXX1258 0
XXXX1259 0
XXXX1260 0
XXXX1261 0
XXXX1262 0
XXXX1263 0
XXXX1264 0
XXXX1265 0
XXXX1266 0
XXXX1267 0
XXXX1268 0
XXXX1269 0
XXXX1270 0
XXXX1271 0
XXXX1272 0
XXXX1273 0
XXXX1274 0
XXXX1275 0
XXXX1276 0
XXXX1277 0
XXXX1278 0
XXXX1279 0
XXXX1280 0
XXXX1281 0
XXXX1282 0
XXXX1283 0
XXXX1284 0
XXXX1285 0
XXXX1286 0
XXXX1287 0
XXXX1288 0
XXXX1289 0
XXXX1290 0
XXXX1291 0
XXXX1292 0
XXXX1293 0
XXXX1294 0
XXXX1295 0
XXXX1296 0
XXXX1297 0
XXXX1298 0
XXXX1299 0
XXXX1300 0
XXXX1301 0
XXXX1302 0
XXXX1303 0
XXXX1304 0
XXXX1305 0
XXXX1306 0
XXXX1307 0
XXXX1308 0
XXXX1309 0
XXXX1310 0
XXXX1311 0
XXXX1312 0
XXXX1313 0
XXXX1314 0
XXXX1315 0
XXXX1316 0
XXXX1317 0
XXXX1318 0
XXXX1319 0
XXXX1320 0
XXXX1321 0
XXXX1322 0
XXXX1323 0
XXXX1324 0
XXXX1325 0
XXXX1326 0
XXXX1327 0
XXXX1328 0
XXXX1329 0
XXXX1330 0
XXXX1331 0
XXXX1332 0
XXXX1333 0
XXXX1334 0
XXXX1335 0
XXXX1336 0
XXXX1337 0
XXXX1338 0
XXXX1339 0
XXXX1340 0
XXXX1341 1
XXXX1342 1
XXXX1343 1
XXXX1344 1
XXXX1345 1
XXXX1346 1
XXXX1347 1
XXXX1348 1
XXXX1349 1
XXXX1350 1
XXXX1351 1
XXXX1352 1
XXXX1353 1
XXXX1354 1
XXXX1355 1
XXXX1356 1
XXXX1357 1
XXXX1358 1
XXXX1359 1
XXXX1360 1
XXXX1361 1
XXXX1362 1
XXXX1363 1
XXXX1364 1
XXXX1365 1
XXXX1366 1
XXXX1367 1
XXXX1368 1
XXXX1369 1
XXXX1370 1
XXXX1371 1
XXXX1372 1
XXXX1373 1
XXXX1374 1
XXXX1375 1
XXXX1376 1
XXXX1377 1
XXXX1378 1
XXXX1379 1
XXXX1380 1
XXXX1381 1
XXXX1382 1
XXXX1383 1
XXXX1384 1
XXXX1385 1
XXXX1386 1
XXXX1387 1
XXXX1388 1
XXXX1389 1
XXXX1390 1
XXXX1391 0
XXXX1392 0
XXXX1393 0
XXXX1394 0
XXXX1395 0
XXXX1396 0
XXXX1397 0
XXXX1398 0
XXXX1399 0
XXXX1400 0
XXXX1401 0
XXXX1402 0
XXXX1403 0
XXXX1404 0
XXXX1405 0
XXXX1406 0
XXXX1407 0
XXXX1408 0
XXXX1409 0
XXXX1410 0
XXXX1411 0
XXXX1412 0
XXXX1413 0
XXXX1414 0
XXXX1415 0
XXXX1416 0
XXXX1417 0
XXXX1418 0
XXXX1419 0
XXXX1420 0
XXXX1421 0
XXXX1422 0
XXXX1423 0
XXXX1424 0
XXXX1425 0
XXXX1426 0
XXXX1427 0
XXXX1428 0
XXXX1429 0
XXXX1430 0
XXXX1431 0
XXXX1432 0
XXXX1433 0
XXXX1434 0
XXXX1435 0
XXXX1436 0
XXXX1437 0
XXXX1438 0
XXXX1439 0
XXXX1440 0
XXXX1441 0
XXXX1442 0
XXXX1443 0
XXXX1444 0
XXXX1445 0
XXXX1446 0
XXXX1447 0
XXXX1448 0
XXXX1449 0
XXXX1450 0
XXXX1451 0
XXXX1452 0
XXXX1453 0
XXXX1454 0
XXXX1455 0
XXXX1456 0
XXXX1457 0
XXXX1458 0
XXXX1459 0
XXXX1460 0
XXXX1461 0
XXXX1462 0
XXXX1463 0
XXXX1464 0
XXXX1465 0
XXXX1466 0
XXXX1467 0
XXXX1468 0
XXXX1469 0
XXXX1470 0
XXXX1471 0
XXXX1472 0
XXXX1473 0
XXXX1474 1
XXXX1475 1
XXXX1476 1
XXXX1477 1
XXXX1478 1
XXXX1479 1
XXXX1480 1
XXXX1481 1
XXXX1482 1
XXXX1483 1
XXXX1484 1
XXXX1485 1
XXXX1486 1
XXXX1487 1
XXXX1488 1
XXXX1489 1
XXXX1490 1
XXXX1491 1
XXXX1492 1
XXXX1493 1
XXXX1494 1
XXXX1495 1
XXXX1496 1
XXXX1497 1
XXXX1498 1
XXXX1499 1
XXXX1500 1
XXXX1501 1
XXXX1502 1
XXXX1503 1
XXXX1504 1
XXXX1505 1
XXXX1506 1
XXXX1507 1
XXXX1508 1
XXXX1509 1
XXXX1510 1
XXXX1511 1
XXXX1512 1
XXXX1513 1
XXXX1514 1
XXXX1515 1
XXXX1516 1
XXXX1517 0
XXXX1518 0
XXXX1519 0
XXXX1520 0
XXXX1521 0
XXXX1522 0
XXXX1523 0
XXXX1524 0
XXXX1525 0
XXXX1526 0
XXXX1527 0
XXXX1528 0
XXXX1529 0
XXXX1530 0
XXXX1531 0
XXXX1532 0
XXXX1533 0
XXXX1534 0
XXXX1535 0
XXXX1536 0
XXXX1537 0
XXXX1538 0
XXXX1539 0
XXXX1540 0
XXXX1541 0
XXXX1542 0
XXXX1543 0
XXXX1544 0
XXXX1545 0
XXXX1546 0
XXXX1547 0
XXXX1548 0
XXXX1549 0
XXXX1550 0
XXXX1551 0
XXXX1552 0
XXXX1553 0
XXXX1554 0
XXXX1555 0
XXXX1556 0
XXXX1557 0
XXXX1558 0
XXXX1559 0
XXXX1560 0
XXXX1561 0
XXXX1562 0
XXXX1563 0
XXXX1564 0
XXXX1565 0
XXXX1566 0
XXXX1567 0
XXXX1568 0
XXXX1569 0
XXXX1570 0
XXXX1571 0
XXXX1572 0
XXXX1573 0
XXXX1574 0
XXXX1575 0
XXXX1576 0
XXXX1577 0
XXXX1578 0
XXXX1579 0
XXXX1580 0
XXXX1581 0
XXXX1582 0
XXXX1583 0
XXXX1584 0
XXXX1585 0
XXXX1586 0
XXXX1587 0
XXXX1588 0
XXXX1589 0
XXXX1590 0
XXXX1591 0
XXXX1592 0
XXXX1593 0
XXXX1594 0
XXXX1595 0
XXXX1596 0
XXXX1597 0
XXXX1598 0
XXXX1599 0
XXXX1600 0
XXXX1601 0
XXXX1602 0
XXXX1603 0
XXXX1604 0
XXXX1605 0
XXXX1606 0
XXXX1607 0
XXXX1608 0
XXXX1609 0
XXXX1610 0
XXXX1611 0
XXXX1612 0
XXXX1613 0
XXXX1614 0
XXXX1615 0
XXXX1616 0
XXXX1617 0
XXXX1618 0
XXXX1619 0
XXXX1620 0
XXXX1621 0
XXXX1622 0
XXXX1623 0
XXXX1624 0
XXXX1625 0
XXXX1626 0
XXXX1627 0
XXXX1628 0
XXXX1629 0
XXXX1630 0
XXXX1631 0
XXXX1632 0
XXXX1633 0
XXXX1634 0
XXXX1635 0
XXXX1636 0
XXXX1637 0
XXXX1638 0
XXXX1639 0
XXXX1640 0
XXXX1641 0
XXXX1642 0
XXXX1643 0
XXXX1644 0
XXXX1645 0
XXXX1646 0
XXXX1647 0
XXXX1648 0
XXXX1649 0
XXXX1650 0
XXXX1651 0
XXXX1652 0
XXXX1653 0
XXXX1654 0
XXXX1655 0
XXXX1656 0
XXXX1657 0
XXXX1658 0
XXXX1659 0
XXXX1660 0
XXXX1661 0
XXXX1662 0
XXXX1663 0
XXXX1664 0
XXXX1665 0
XXXX1666 0
XXXX1667 0
XXXX1668 0
XXXX1669 0
XXXX1670 0
XXXX1671 0
XXXX1672 0
XXXX1673 0
XXXX1674 0
XXXX1675 0
XXXX1676 0
XXXX1677 0
XXXX1678 0
XXXX1679 0
XXXX1680 1
XXXX1681 1
XXXX1682 1
XXXX1683 1
XXXX1684 1
XXXX1685 1
XXXX1686 1
XXXX1687 1
XXXX1688 1
XXXX1689 1
XXXX1690 1
XXXX1691 1
XXXX1692 1
XXXX1693 1
XXXX1694 1
XXXX1695 1
XXXX1696 1
XXXX1697 1
XXXX1698 1
XXXX1699 1
XXXX1700 1
XXXX1701 1
XXXX1702 1
XXXX1703 1
XXXX1704 1
XXXX1705 1
XXXX1706 1
XXXX1707 1
XXXX1708 1
XXXX1709 1
XXXX1710 1
XXXX1711 1
XXXX1712 1
XXXX1713 1
XXXX1714 1
XXXX1715 1
XXXX1716 1
XXXX1717 1
XXXX1718 1
XXXX1719 1
XXXX1720 1
XXXX1721 1
XXXX1722 1
XXXX1723 1
XXXX1724 1
XXXX1725 1
XXXX1726 1
XXXX1727 1
XXXX1728 1
XXXX1729 1
XXXX1730 1
XXXX1731 1
XXXX1732 1
XXXX1733 1
XXXX1734 1
XXXX1735 1
XXXX1736 1
XXXX1737 1
XXXX1738 1
XXXX1739 0
XXXX1740 0
XXXX1741 0
XXXX1742 0
XXXX1743 0
XXXX1744 0
XXXX1745 0
XXXX1746 0
XXXX1747 0
XXXX1748 0
XXXX1749 0
XXXX1750 0
XXXX1751 0
XXXX1752 0
XXXX1753 0
XXXX1754 0
XXXX1755 0
XXXX1756 0
XXXX1757 0
XXXX1758 0
XXXX1759 0
XXXX1760 0
XXXX1761 0
XXXX1762 0
XXXX1763 0
XXXX1764 0
XXXX1765 0
XXXX1766 0
XXXX1767 0
XXXX1768 0
XXXX1769 0
XXXX1770 0
XXXX1771 0
XXXX1772 0
XXXX1773 0
XXXX1774 0
XXXX1775 0
XXXX1776 0
XXXX1777 0
XXXX1778 0
XXXX1779 0
XXXX1780 0
XXXX1781 0
XXXX1782 0
XXXX1783 0
XXXX1784 0
XXXX1785 0
XXXX1786 0
XXXX1787 0
XXXX1788 0
XXXX1789 0
XXXX1790 0
XXXX1791 0
XXXX1792 0
XXXX1793 0
XXXX1794 0
XXXX1795 0
XXXX1796 1
XXXX1797 1
XXXX1798 1
XXXX1799 1
XXXX1800 1
XXXX1801 1
XXXX1802 1
XXXX1803 1
XXXX1804 1
XXXX1805 1
XXXX1806 1
XXXX1807 1
XXXX1808 1
XXXX1809 1
XXXX1810 1
XXXX1811 1
XXXX1812 1
XXXX1813 1
XXXX1814 1
XXXX1815 1
XXXX1816 1
XXXX1817 1
XXXX1818 1
XXXX1819 1
XXXX1820 1
XXXX1821 1
XXXX1822 1
XXXX1823 1
XXXX1824 1
XXXX1825 1
XXXX1826 1
XXXX1827 1
XXXX1828 1
XXXX1829 1
XXXX1830 1
XXXX1831 1
XXXX1832 1
XXXX1833 1
XXXX1834 1
XXXX1835 1
XXXX1836 1
XXXX1837 1
XXXX1838 1
XXXX1839 1
XXXX1840 1
XXXX1841 1
XXXX1842 1
XXXX1843 1
XXXX1844 0
XXXX1845 0
XXXX1846 0
XXXX1847 0
XXXX1848 0
XXXX1849 0
XXXX1850 0
XXXX1851 0
XXXX1852 0
XXXX1853 0
XXXX1854 0
XXXX1855 0
XXXX1856 0
XXXX1857 0
XXXX1858 0
XXXX1859 0
XXXX1860 0
XXXX1861 0
XXXX1862 0
XXXX1863 0
XXXX1864 0
XXXX1865 0
XXXX1866 0
XXXX1867 0
XXXX1868 0
XXXX1869 0
XXXX1870 0
XXXX1871 0
XXXX1872 0
XXXX1873 0
XXXX1874 0
XXXX1875 0
XXXX1876 0
XXXX1877 0
XXXX1878 0
XXXX1879 0
XXXX1880 0
XXXX1881 0
XXXX1882 0
XXXX1883 0
XXXX1884 0
XXXX1885 0
XXXX1886 0
XXXX1887 0
XXXX1888 0
XXXX1889 0
XXXX1890 0
XXXX1891 0
XXXX1892 0
XXXX1893 0
XXXX1894 0
XXXX1895 0
XXXX1896 0
XXXX1897 0
XXXX1898 0
XXXX1899 0
XXXX1900 0
XXXX1901 0
XXXX1902 0
XXXX1903 0
XXXX1904 0
XXXX1905 0
XXXX1906 0
XXXX1907 0
XXXX1908 0
XXXX1909 0
XXXX1910 0
XXXX1911 0
XXXX1912 0
XXXX1913 0
XXXX1914 0
XXXX1915 0
XXXX1916 0
XXXX1917 0
XXXX1918 0
XXXX1919 0
XXXX1920 0
XXXX1921 0
XXXX1922 0
XXXX1923 0
XXXX1924 0
XXXX1925 0
XXXX1926 0
XXXX1927 0
XXXX1928 0
XXXX1929 0
XXXX1930 0
XXXX1931 0
XXXX1932 0
XXXX1933 0
XXXX1934 0
XXXX1935 0
XXXX1936 1
XXXX1937 1
XXXX1938 1
XXXX1939 1
XXXX1940 1
XXXX1941 1
XXXX1942 1
XXXX1943 1
XXXX1944 1
XXXX1945 1
XXXX1946 1
XXXX1947 1
XXXX1948 1
XXXX1949 1
XXXX1950 1
XXXX1951 1
XXXX1952 1
XXXX1953 1
XXXX1954 1
XXXX1955 1
XXXX1956 1
XXXX1957 1
XXXX1958 1
XXXX1959 1
XXXX1960 1
XXXX1961 1
XXXX1962 1
XXXX1963 1
XXXX1964 1
XXXX1965 1
XXXX1966 1
XXXX1967 1
XXXX1968 1
XXXX1969 1
XXXX1970 1
XXXX1971 1
XXXX1972 1
XXXX1973 1
XXXX1974 1
XXXX1975 1
XXXX1976 1
XXXX1977 1
XXXX1978 1
XXXX1979 1
XXXX1980 1
XXXX1981 1
XXXX1982 1
XXXX1983 1
XXXX1984 1
XXXX1985 1
XXXX1986 1
XXXX1987 1
XXXX1988 1
XXXX1989 1
XXXX1990 1
XXXX1991 1
XXXX1992 1
XXXX1993 1
XXXX1994 1
XXXX1995 1
XXXX1996 1
XXXX1997 1
XXXX1998 1
XXXX1999 1
XXXX2000 1
XXXX2001 1
XXXX2002 1
XXXX2003 1
XXXX2004 1
XXXX2005 1
XXXX2006 1
XXXX2007 1
XXXX2008 1
XXXX2009 1
XXXX2010 1
XXXX2011 1
XXXX2012 1
XXXX2013 1
XXXX2014 1
XXXX2015 1
XXXX2016 1
XXXX2017 1
XXXX2018 1
XXXX2019 1
XXXX2020 1
XXXX2021 1
XXXX2022 1
XXXX2023 1
XXXX2024 1
XXXX2025 1
XXXX2026 1
XXXX2027 1
XXXX2028 1
XXXX2029 1
XXXX2030 1
XXXX2031 1
XXXX2032 1
XXXX2033 1
XXXX2034 1
XXXX2035 1
XXXX2036 1
XXXX2037 1
XXXX2038 1
XXXX2039 1
XXXX2040 1
XXXX2041 1
XXXX2042 1
XXXX2043 1
XXXX2044 1
XXXX2045 1
XXXX2046 1
XXXX2047 1
XXXX2048 1
XXXX2049 1
XXXX2050 1
XXXX2051 1
XXXX2052 1
XXXX2053 1
XXXX2054 1
XXXX2055 1
XXXX2056 1
XXXX2057 1
XXXX2058 1
XXXX2059 1
XXXX2060 1
XXXX2061 1
XXXX2062 1
XXXX2063 1
XXXX2064 1
XXXX2065 1
XXXX2066 1
XXXX2067 1
XXXX2068 1
XXXX2069 1
XXXX2070 1
XXXX2071 1
XXXX2072 1
XXXX2073 1
XXXX2074 1
XXXX2075 1
XXXX2076 1
XXXX2077 1
XXXX2078 1
XXXX2079 1
XXXX2080 1
XXXX2081 1
XXXX2082 1
XXXX2083 1
XXXX2084 1
XXXX2085 1
XXXX2086 1
XXXX2087 1
XXXX2088 1
XXXX2089 1
XXXX2090 1
XXXX2091 1
XXXX2092 1
XXXX2093 1
XXXX2094 1
XXXX2095 1
XXXX2096 1
XXXX2097 1
XXXX2098 1
XXXX2099 1
XXXX2100 1
XXXX2101 1
XXXX2102 0
XXXX2103 0
XXXX2104 0
XXXX2105 0
XXXX2106 0
XXXX2107 0
XXXX2108 0
XXXX2109 0
XXXX2110 0
XXXX2111 0
XXXX2112 0
XXXX2113 0
XXXX2114 0
XXXX2115 0
XXXX2116 0
XXXX2117 0
XXXX2118 0
XXXX2119 0
XXXX2120 0
XXXX2121 0
XXXX2122 0
XXXX2123 0
XXXX2124 0
XXXX2125 0
XXXX2126 0
XXXX2127 0
XXXX2128 0
XXXX2129 0
XXXX2130 0
XXXX2131 0
XXXX2132 0
XXXX2133 0
XXXX2134 0
XXXX2135 0
XXXX2136 0
XXXX2137 0
XXXX2138 0
XXXX2139 0
XXXX2140 0
XXXX2141 0
XXXX2142 0
XXXX2143 0
XXXX2144 0
XXXX2145 0
XXXX2146 0
XXXX2147 0
XXXX2148 0
XXXX2149 0
XXXX2150 0
XXXX2151 0
XXXX2152 0
XXXX2153 0
XXXX2154 0
XXXX2155 0
XXXX2156 0
XXXX2157 0
XXXX2158 0
XXXX2159 0
XXXX2160 0
XXXX2161 0
XXXX2162 0
XXXX2163 0
XXXX2164 0
XXXX2165 0
XXXX2166 0
XXXX2167 0
XXXX2168 0
XXXX2169 0
XXXX2170 0
XXXX2171 0
XXXX2172 0
XXXX2173 0
XXXX2174 0
XXXX2175 0
XXXX2176 0
XXXX2177 0
XXXX2178 0
XXXX2179 0
XXXX2180 0
XXXX2181 0
XXXX2182 0
XXXX2183 0
XXXX2184 0
XXXX2185 0
XXXX2186 0
XXXX2187 0
XXXX2188 0
XXXX2189 0
XXXX2190 0
XXXX2191 0
XXXX2192 0
XXXX2193 0
XXXX2194 0
XXXX2195 0
XXXX2196 0
XXXX2197 0
XXXX2198 0
XXXX2199 0
XXXX2200 0
XXXX2201 0
XXXX2202 0
XXXX2203 0
XXXX2204 0
XXXX2205 0
XXXX2206 0
XXXX2207 0
XXXX2208 0
XXXX2209 0
XXXX2210 0
XXXX2211 0
XXXX2212 1
XXXX2213 1
XXXX2214 1
XXXX2215 1
XXXX2216 1
XXXX2217 1
XXXX2218 1
XXXX2219 1
XXXX2220 1
XXXX2221 1
XXXX2222 1
XXXX2223 1
XXXX2224 1
XXXX2225 1
XXXX2226 1
XXXX2227 1
XXXX2228 1
XXXX2229 1
XXXX2230 1
XXXX2231 1
XXXX2232 1
XXXX2233 1
XXXX2234 1
XXXX2235 1
XXXX2236 1
XXXX2237 1
XXXX2238 1
XXXX2239 1
XXXX2240 1
XXXX2241 1
XXXX2242 1
XXXX2243 1
XXXX2244 1
XXXX2245 1
XXXX2246 1
XXXX2247 1
XXXX2248 1
XXXX2249 1
XXXX2250 1
XXXX2251 1
XXXX2252 1
XXXX2253 1
XXXX2254 1
XXXX2255 0
XXXX2256 0
XXXX2257 0
XXXX2258 0
XXXX2259 0
XXXX2260 0
XXXX2261 0
XXXX2262 0
XXXX2263 0
XXXX2264 0
XXXX2265 0
XXXX2266 0
XXXX2267 0
XXXX2268 0
XXXX2269 0
XXXX2270 0
XXXX2271 0
XXXX2272 0
XXXX2273 0
XXXX2274 0
XXXX2275 0
XXXX2276 0
XXXX2277 0
XXXX2278 0
XXXX2279 0
XXXX2280 0
XXXX2281 0
XXXX2282 0
XXXX2283 0
XXXX2284 0
XXXX2285 0
XXXX2286 0
XXXX2287 0
XXXX2288 0
XXXX2289 0
XXXX2290 0
XXXX2291 0
XXXX2292 0
XXXX2293 0
XXXX2294 0
XXXX2295 0
XXXX2296 0
XXXX2297 0
XXXX2298 0
XXXX2299 0
XXXX2300 0
XXXX2301 0
XXXX2302 0
XXXX2303 0
XXXX2304 0
XXXX2305 0
XXXX2306 0
XXXX2307 0
XXXX2308 0
XXXX2309 0
XXXX2310 0
XXXX2311 0
XXXX2312 0
XXXX2313 0
XXXX2314 0
XXXX2315 0
XXXX2316 0
XXXX2317 0
XXXX2318 0
XXXX2319 0
XXXX2320 0
XXXX2321 0
XXXX2322 0
XXXX2323 0
XXXX2324 0
XXXX2325 0
XXXX2326 0
XXXX2327 0
XXXX2328 0
XXXX2329 0
XXXX2330 0
XXXX2331 0
XXXX2332 0
XXXX2333 0
XXXX2334 0
XXXX2335 0
XXXX2336 0
XXXX2337 0
XXXX2338 0
XXXX2339 0
XXXX2340 0
XXXX2341 0
XXXX2342 0
XXXX2343 0
XXXX2344 0
XXXX2345 0
XXXX2346 0
XXXX2347 0
XXXX2348 0
XXXX2349 0
XXXX2350 0
XXXX2351 0
XXXX2352 0
XXXX2353 0
XXXX2354 0
XXXX2355 0
XXXX2356 0
XXXX2357 0
XXXX2358 0
XXXX2359 0
XXXX2360 0
XXXX2361 0
XXXX2362 0
XXXX2363 0
XXXX2364 0
XXXX2365 0
XXXX2366 0
XXXX2367 0
XXXX2368 0
XXXX2369 0
XXXX2370 0
XXXX2371 0
XXXX2372 0
XXXX2373 0
XXXX2374 0
XXXX2375 0
XXXX2376 0
XXXX2377 0
XXXX2378 0
XXXX2379 0
XXXX2380 0
XXXX2381 0
XXXX2382 0
XXXX2383 0
XXXX2384 0
XXXX2385 0
XXXX2386 0
XXXX2387 0
XXXX2388 0
XXXX2389 0
XXXX2390 0
XXXX2391 0
XXXX2392 0
XXXX2393 0
XXXX2394 0
XXXX2395 0
XXXX2396 0
XXXX2397 0
XXXX2398 0
XXXX2399 0
XXXX2400 0
XXXX2401 0
XXXX2402 0
XXXX2403 0
XXXX2404 0
XXXX2405 0
XXXX2406 0
XXXX2407 0
XXXX2408 0
XXXX2409 0
XXXX2410 0
XXXX2411 0
XXXX2412 0
XXXX2413 0
XXXX2414 0
XXXX2415 1
XXXX2416 1
XXXX2417 1
XXXX2418 1
XXXX2419 1
XXXX2420 1
XXXX2421 1
XXXX2422 1
XXXX2423 1
XXXX2424 1
XXXX2425 1
XXXX2426 1
XXXX2427 1
XXXX2428 1
XXXX2429 1
XXXX2430 1
XXXX2431 1
XXXX2432 1
XXXX2433 1
XXXX2434 1
XXXX2435 1
XXXX2436 1
XXXX2437 1
XXXX2438 1
XXXX2439 1
XXXX2440 1
XXXX2441 1
XXXX2442 1
XXXX2443 1
XXXX2444 1
XXXX2445 1
XXXX2446 1
XXXX2447 1
XXXX2448 1
XXXX2449 1
XXXX2450 1
XXXX2451 1
XXXX2452 1
XXXX2453 1
XXXX2454 1
XXXX2455 1
XXXX2456 1
XXXX2457 1
XXXX2458 1
XXXX2459 1
XXXX2460 1
XXXX2461 1
XXXX2462 1
XXXX2463 1
XXXX2464 1
XXXX2465 1
XXXX2466 1
XXXX2467 1
XXXX2468 1
XXXX2469 1
XXXX2470 1
XXXX2471 1
XXXX2472 1
XXXX2473 1
XXXX2474 1
XXXX2475 1
XXXX2476 1
XXXX2477 1
XXXX2478 1
XXXX2479 1
XXXX2480 1
XXXX2481 1
XXXX2482 1
XXXX2483 1
XXXX2484 1
XXXX2485 1
XXXX2486 1
XXXX2487 1
XXXX2488 1
XXXX2489 1
XXXX2490 1
XXXX2491 1
XXXX2492 1
XXXX2493 1
XXXX2494 1
XXXX2495 1
XXXX2496 1
XXXX2497 1
XXXX2498 1
XXXX2499 1
XXXX2500 1
XXXX2501 1
XXXX2502 1
XXXX2503 1
XXXX2504 1
XXXX2505 1
XXXX2506 1
XXXX2507 1
XXXX2508 1
XXXX2509 1
XXXX2510 1
XXXX2511 0
XXXX2512 0
XXXX2513 0
XXXX2514 0
XXXX2515 0
XXXX2516 0
XXXX2517 0
XXXX2518 0
XXXX2519 0
XXXX2520 0
XXXX2521 0
XXXX2522 0
XXXX2523 0
XXXX2524 0
XXXX2525 0
XXXX2526 0
XXXX2527 0
XXXX2528 0
XXXX2529 0
XXXX2530 0
XXXX2531 0
XXXX2532 0
XXXX2533 0
XXXX2534 0
XXXX2535 0
XXXX2536 0
XXXX2537 0
XXXX2538 0
XXXX2539 0
XXXX2540 0
XXXX2541 0
XXXX2542 0
XXXX2543 0
XXXX2544 0
XXXX2545 0
XXXX2546 0
XXXX2547 0
XXXX2548 0
XXXX2549 0
XXXX2550 0
XXXX2551 0
YYYYYYY0 1
YYYYYYY1 1
YYYYYYY2 1
YYYYYYY3 0
YYYYYYY4 0
YYYYYYY5 1
YYYYYYY6 0
YYYYYYY7 1
YYYYYYY8 1
YYYYYYY9 1
YYYYYY10 0
YYYYYY11 1
YYYYYY12 1
YYYYYY13 0
YYYYYY14 1
YYYYYY15 1
YYYYYY16 0
YYYYYY17 0
YYYYYY18 0
YYYYYY19 0
YYYYYY20 0
YYYYYY21 1
YYYYYY22 1
YYYYYY23 0
YYYYYY24 0
YYYYYY25 0
YYYYYY26 1
YYYYYY27 0
YYYYYY28 0
YYYYYY29 1
YYYYYY30 0
YYYYYY31 0
YYYYYY32 0
YYYYYY33 1
YYYYYY34 0
YYYYYY35 1
YYYYYY36 0
YYYYYY37 0
YYYYYY38 1
YYYYYY39 1
YYYYYY40 1
YYYYYY41 0
YYYYYY42 0
YYYYYY43 1
YYYYYY44 0
YYYYYY45 0
YYYYYY46 0
YYYYYY47 1
YYYYYY48 1
YYYYYY49 0
